&INPUTPP
prefix='si'
plot_num=0
outdir='./tmp'
filplot='./data/si.rho.out'
&end

&PLOT
nfile=1
weight(1)=1.0
iflag=3
output_format=3
fileout='./data/si.rho.xsf',
nx=32,ny=32,nz=32
&end
