&CONTROL
  calculation = 'bands'
  restart_mode = 'from_scratch'
  outdir = './tmp'
  pseudo_dir = './pseudo'
  prefix = 'si'
  tstress = .true.
  tprnfor = .true.
/
&SYSTEM
  ibrav = 2
  celldm(1) = 10.215749258
  nat = 2
  ntyp = 1
  ecutwfc = 80, nbnd=10,
occupations='fixed'
/
&ELECTRONS
  conv_thr = 1.0e-7
/
ATOMIC_SPECIES
  Si  20.0855  Si.LDA.upf
ATOMIC_POSITIONS crystal
  Si  0.00   0.00   0.00
  Si  0.25   0.25   0.25
 K_POINTS (crystal_b)
5
0.00   0.00   0.00   40   ! Γ
0.50   0.50   0.00   40   ! X
0.50   0.75   0.25   40   ! W
0.375  0.375  0.75   40   ! K
0.00   0.00   0.00   40   ! Γ
