&CONTROL
  calculation = 'scf'
  restart_mode = 'from_scratch'
  outdir = './tmp'
  pseudo_dir = './pseudo'
  prefix = 'si'
  tstress = .true.
  tprnfor = .true.
/
&SYSTEM
  ibrav = 2
  celldm(1) = 10.215749258
  nat = 2
  ntyp = 1
  ecutwfc = 160
  occupations = 'fixed'
/
&ELECTRONS
  conv_thr = 1.0e-7
/
ATOMIC_SPECIES
  Si  28.0855  Si.LDA.upf
ATOMIC_POSITIONS crystal
  Si   0.00   0.00   0.00
  Si   0.25   0.25   0.25
K_POINTS automatic
  8 8 8 0 0 0
